
Welcome to IBM(R) ILOG(R) CPLEX(R) Interactive Optimizer 12.7.1.0
  with Simplex, Mixed Integer & Barrier Optimizers
5725-A06 5725-A29 5724-Y48 5724-Y49 5724-Y54 5724-Y55 5655-Y21
Copyright IBM Corp. 1988, 2017.  All Rights Reserved.

Type 'help' for a list of available commands.
Type 'help' followed by a command name for more
information on commands.

CPLEX> New value for default parallel thread count: 1
CPLEX> New value for time limit in seconds: 3600
CPLEX> Problem 'eil76_m26.lp' read.
Read time = 0.18 sec. (16.35 ticks)
CPLEX> CPXPARAM_TimeLimit                               3600
CPXPARAM_Threads                                 1
CPXPARAM_Read_APIEncoding                        "UTF-8"
Tried aggregator 1 time.
MIP Presolve modified 152100 coefficients.
Reduced MIP has 7728 rows, 148276 columns, and 888938 nonzeros.
Reduced MIP has 148200 binaries, 75 generals, 0 SOSs, and 0 indicators.
Presolve time = 0.52 sec. (663.20 ticks)
Tried aggregator 1 time.
Reduced MIP has 7728 rows, 148276 columns, and 888938 nonzeros.
Reduced MIP has 148200 binaries, 76 generals, 0 SOSs, and 0 indicators.
Presolve time = 0.56 sec. (466.83 ticks)
Probing time = 0.16 sec. (71.28 ticks)
Clique table members: 291499.
MIP emphasis: balance optimality and feasibility.
MIP search method: dynamic search.
Parallel mode: none, using 1 thread.
Root relaxation solution time = 31.37 sec. (51473.64 ticks)

        Nodes                                         Cuts/
   Node  Left     Objective  IInf  Best Integer    Best Bound    ItCnt     Gap

      0     0       43.4731   261                     43.4731    37143         
      0     0       44.6938   230                    Cuts: 72    58213         
      0     0       45.0000   376                    Cuts: 67    91260         
      0     0       45.0000   488                   Cuts: 114   112623         
      0     0       45.0000   327                    Cuts: 20   119834         
      0     0       45.0000   354                   Cuts: 133   143076         
Heuristic still looking.
Heuristic still looking.
      0     2       45.0000   259                     45.0000   143076         
Elapsed time = 433.57 sec. (699642.36 ticks, tree = 0.01 MB, solutions = 0)
      1     3       45.0600   306                     45.0000   157914         
      2     4       45.0000   295                     45.0000   159504         
      3     5       45.0000   318                     45.0000   160139         
      4     6       45.0000   286                     45.0000   162257         
      5     7       45.0000   281                     45.0000   171525         
      6     8       45.0000   310                     45.0000   177746         
      7     9       45.0000   293                     45.0000   178103         
      8    10       45.0000   266                     45.0000   181208         
      9    11       45.0000   281                     45.0000   181533         
     10    12       45.0000   283                     45.0000   182150         
Elapsed time = 501.06 sec. (822916.93 ticks, tree = 1.42 MB, solutions = 0)
     11    13       45.0000   284                     45.0000   185615         
     12    14       45.0000   260                     45.0000   188964         
     13    15       45.0000   259                     45.0000   190780         
     14    16       45.0000   244                     45.0000   198808         
     15    17       45.0168   272                     45.0000   203849         
     16    17       45.9000   341                     45.0000   229840         
     18    19       45.0306   407                     45.0000   230320         
     20    21       45.0525   429                     45.0000   230700         
     22    23       45.1868   268                     45.0000   231640         
     24    25       52.0000   360                     45.0000   239202         
Elapsed time = 581.06 sec. (959962.25 ticks, tree = 3.31 MB, solutions = 0)
     27    27       45.2390   621                     45.0000   239594         
     31    29       45.3136   689                     45.0000   240128         
     32    30       68.2800   439                     45.0000   240667         
     34    32       45.4101   415                     45.0000   241914         
     35    33       45.4521   424                     45.0000   242784         
     36    34       45.5635   304                     45.0000   243316         
     39    37       45.5929   338                     45.0000   243718         
     40    38       54.4000   325                     45.0000   250690         
     44    42       45.6387   328                     45.0000   251108         
     48    46       45.7340   289                     45.0000   251468         
Elapsed time = 601.46 sec. (992055.65 ticks, tree = 6.23 MB, solutions = 0)
     52    50       45.7281   299                     45.0000   251825         
     59    55       48.0000   257                     45.0000   252299         
     72    64       76.3200   168                     45.0000   252747         
     90    76      122.4000   155                     45.0000   253054         
    118    99      184.0000   139                     45.0000   253500         
    137   116      184.0000   142                     45.0000   253823         
    168   145      184.0000    85                     45.0000   254329         
    203   179      184.0000    25                     45.0000   254685         
*   228   195      integral     0      226.0000       45.0000   255026   80.09%
    229   194       45.0000   267      226.0000       45.0000   257915   80.09%
    230   195       45.0000   271      226.0000       45.0000   258338   80.09%
Elapsed time = 617.44 sec. (1019062.82 ticks, tree = 29.00 MB, solutions = 1)
    231   196       45.6600   282      226.0000       45.0000   268991   80.09%
    234   199       45.0000   267      226.0000       45.0000   272191   80.09%
    235   200       45.0594   440      226.0000       45.0000   276925   80.09%
    236   201       45.0000   250      226.0000       45.0000   280262   80.09%
    237   202       45.0090   257      226.0000       45.0000   282003   80.09%
    238   203       45.0387   256      226.0000       45.0000   288793   80.09%
    241   206       52.0800   222      226.0000       45.0000   289244   80.09%
    245   210       54.4000   262      226.0000       45.0000   289847   80.09%
    247   212       45.1913   268      226.0000       45.0000   290311   80.09%
    248   213       45.0606   448      226.0000       45.0000   290730   80.09%
Elapsed time = 663.16 sec. (1100698.23 ticks, tree = 31.63 MB, solutions = 1)
    250   215       45.0803   484      226.0000       45.0000   291344   80.09%
    252   217       45.3170   559      226.0000       45.0000   292042   80.09%
    253   218       52.0000   493      226.0000       45.0000   292397   80.09%
    258   223       45.4936   466      226.0000       45.0000   293025   80.09%
    260   225       45.8647   555      226.0000       45.0000   293526   80.09%
    262   226       47.7800   365      226.0000       45.0000   301764   80.09%
    265   229       45.7391   576      226.0000       45.0000   302184   80.09%
    266   230       45.7552   541      226.0000       45.0000   302555   80.09%
    271   235       45.8555   552      226.0000       45.0000   303117   80.09%
    273   237       45.8302   286      226.0000       45.0000   303490   80.09%
Elapsed time = 682.31 sec. (1132391.09 ticks, tree = 35.30 MB, solutions = 1)
    276   240       46.3000   278      226.0000       45.0000   303983   80.09%
    290   253       60.2000   209      226.0000       45.0000   304417   80.09%
    304   266       77.0400   281      226.0000       45.0000   304983   80.09%
    320   280       74.0000   203      226.0000       45.0000   305422   80.09%
    332   292       74.0000   204      226.0000       45.0000   305968   80.09%
    350   307       74.0000   187      226.0000       45.0000   306432   80.09%
    375   324      159.1600   128      226.0000       45.0000   306958   80.09%
    407   344      221.8800   105      226.0000       45.0000   307279   80.09%
    408   345       45.0000   285      226.0000       45.0000   321072   80.09%
    409   346       45.0000   287      226.0000       45.0000   336986   80.09%
Elapsed time = 741.90 sec. (1234397.67 ticks, tree = 51.81 MB, solutions = 1)
    410   347       45.0000   301      226.0000       45.0000   340411   80.09%
    411   348       45.0000   322      226.0000       45.0000   345110   80.09%
    412   349       45.1220   436      226.0000       45.0000   361067   80.09%
    415   352       45.1621   583      226.0000       45.0000   361716   80.09%
    416   353       45.2275   447      226.0000       45.0000   362925   80.09%
    417   354       45.2348   583      226.0000       45.0000   363246   80.09%
    419   356       45.3427   453      226.0000       45.0000   363796   80.09%
    420   357       45.3870   419      226.0000       45.0000   364259   80.09%
    423   360       45.4644   420      226.0000       45.0000   364607   80.09%
    426   363       45.5389   449      226.0000       45.0000   364950   80.09%
Elapsed time = 781.56 sec. (1305767.00 ticks, tree = 54.28 MB, solutions = 1)
    429   366       45.5945   478      226.0000       45.0000   365984   80.09%
    430   367       45.6118   528      226.0000       45.0000   366399   80.09%
    434   371       45.7096   470      226.0000       45.0000   367072   80.09%
    437   374       45.7348   529      226.0000       45.0000   367782   80.09%
    439   376       45.7574   574      226.0000       45.0000   368265   80.09%
    440   377       45.7664   573      226.0000       45.0000   368343   80.09%
    444   381       45.8211   559      226.0000       45.0000   368709   80.09%
    446   383       45.8502   522      226.0000       45.0000   369218   80.09%
    448   385       45.9233   473      226.0000       45.0000   369621   80.09%
    450   387       46.0313   494      226.0000       45.0000   370222   80.09%
Elapsed time = 815.74 sec. (1359922.46 ticks, tree = 57.77 MB, solutions = 1)
    453   390       46.0569   524      226.0000       45.0000   370526   80.09%
    456   393       46.0822   647      226.0000       45.0000   370821   80.09%
    459   396       46.1066   590      226.0000       45.0000   371103   80.09%
    461   398       46.1537   544      226.0000       45.0000   371506   80.09%
    465   402       46.1763   620      226.0000       45.0000   371777   80.09%
    466   403       46.2698   627      226.0000       45.0000   372411   80.09%
    470   407       46.2920   673      226.0000       45.0000   372800   80.09%
    472   409       46.3186   718      226.0000       45.0000   373126   80.09%
    475   412       46.3375   708      226.0000       45.0000   373451   80.09%
    481   418       46.3650   652      226.0000       45.0000   374790   80.09%
Elapsed time = 824.47 sec. (1374983.41 ticks, tree = 62.27 MB, solutions = 1)
    486   423       46.4048   559      226.0000       45.0000   376340   80.09%
    492   429       46.5011   588      226.0000       45.0000   377625   80.09%
    498   435       46.8492   528      226.0000       45.0000   379132   80.09%
    500   437       46.9476   479      226.0000       45.0000   381045   80.09%
    502   439       47.1722   462      226.0000       45.0000   383614   80.09%
    505   442       47.3288   606      226.0000       45.0000   384971   80.09%
    508   445       47.6938   500      226.0000       45.0000   386324   80.09%
    509   446       45.0000   309      226.0000       45.0000   392231   80.09%
*   510+  445                          225.0000       45.0000            80.00%
    510   447       45.0000   268      225.0000       45.0000   403394   80.00%
    511   448       52.1600   322      225.0000       45.0000   416535   80.00%
Elapsed time = 957.49 sec. (1591036.89 ticks, tree = 66.63 MB, solutions = 2)
    512   449       52.1600   276      225.0000       45.0000   432389   80.00%
    513   450       52.1600   242      225.0000       45.0000   452409   80.00%
    514   451       52.1600   270      225.0000       45.0000   455410   80.00%
    515   452       52.1600   280      225.0000       45.0000   457017   80.00%
    516   453       52.1600   274      225.0000       45.0000   474737   80.00%
    517   454       52.1600   240      225.0000       45.0000   495692   80.00%
    518   455       52.1600   329      225.0000       45.0000   499152   80.00%
    519   456       52.1600   308      225.0000       45.0000   514464   80.00%
    520   457       52.1600   358      225.0000       45.0000   530985   80.00%
    521   458       52.1600   344      225.0000       45.0000   551736   80.00%
Elapsed time = 1168.51 sec. (1934896.58 ticks, tree = 68.10 MB, solutions = 2)
    524   461       52.1600   321      225.0000       45.0000   553050   80.00%
    526   463       52.1600   328      225.0000       45.0000   554322   80.00%
    528   465       52.1600   367      225.0000       45.0000   556677   80.00%
    530   467       52.1600   290      225.0000       45.0000   559167   80.00%
    532   469       52.1600   299      225.0000       45.0000   560581   80.00%
    534   471       52.1600   324      225.0000       45.0000   562148   80.00%
    535   472       52.1600   336      225.0000       45.0000   563444   80.00%
    539   476       52.1600   346      225.0000       45.0000   565137   80.00%
    541   478       52.1600   260      225.0000       45.0000   583906   80.00%
    542   479       52.1600   253      225.0000       45.0000   600416   80.00%
Elapsed time = 1247.72 sec. (2063874.41 ticks, tree = 71.17 MB, solutions = 2)
    543   480       52.1600   262      225.0000       45.0000   624288   80.00%
    544   481       52.1600   271      225.0000       45.0000   647637   80.00%
    545   482       52.1600   280      225.0000       45.0000   672708   80.00%
    546   483       52.1600   321      225.0000       45.0000   693831   80.00%
    547   484       52.1600   286      225.0000       45.0000   713926   80.00%
    548   485       52.1600   331      225.0000       45.0000   738529   80.00%
    549   486       52.1600   282      225.0000       45.0000   766625   80.00%
    550   487       52.1600   292      225.0000       45.0000   788703   80.00%
    551   488       52.1600   297      225.0000       45.0000   812779   80.00%
    552   489       52.1600   444      225.0000       45.0000   813863   80.00%
Elapsed time = 1577.75 sec. (2592618.56 ticks, tree = 72.63 MB, solutions = 2)
    553   490       52.1600   334      225.0000       45.0000   880946   80.00%
    554   491       52.1600   318      225.0000       45.0000   910006   80.00%
    555   492       52.1600   308      225.0000       45.0000   938604   80.00%
    556   493       52.1600   295      225.0000       45.0000   968770   80.00%
    557   494       52.1600   334      225.0000       45.0000   994024   80.00%
    558   495       52.1600   291      225.0000       45.0000  1022555   80.00%
    559   496       52.1600   323      225.0000       45.0000  1026852   80.00%
    560   497       52.1600   250      225.0000       45.0000  1062970   80.00%
    561   498       52.1600   282      225.0000       45.0000  1099325   80.00%
    562   499       52.1600   323      225.0000       45.0000  1133669   80.00%
Elapsed time = 2257.85 sec. (3651831.45 ticks, tree = 74.09 MB, solutions = 2)
    563   500       52.1600   260      225.0000       45.0000  1166089   80.00%
    564   501       52.1600   272      225.0000       45.0000  1197617   80.00%
    565   502       52.1600   268      225.0000       45.0000  1223193   80.00%
    566   503       52.1600   332      225.0000       45.0000  1256262   80.00%
    567   504       52.2400   279      225.0000       45.0000  1325413   80.00%
    570   507       52.2400   368      225.0000       45.0000  1327347   80.00%
    571   508       52.2400   280      225.0000       45.0000  1328734   80.00%
    572   509       52.2400   282      225.0000       45.0000  1330639   80.00%
    573   510       52.2400   332      225.0000       45.0000  1350072   80.00%
    574   511       52.2400   380      225.0000       45.0000  1382883   80.00%
Elapsed time = 2693.10 sec. (4324617.38 ticks, tree = 75.85 MB, solutions = 2)
    575   512       52.2400   404      225.0000       45.0000  1384236   80.00%
    578   515       52.2400   377      225.0000       45.0000  1404925   80.00%
    582   519       52.2400   348      225.0000       45.0000  1406398   80.00%
    587   524       52.2400   263      225.0000       45.0000  1434469   80.00%
    588   525       52.2400   299      225.0000       45.0000  1462836   80.00%
    589   526       52.2400   365      225.0000       45.0000  1485204   80.00%
    590   527       52.2400   352      225.0000       45.0000  1487448   80.00%
    593   530       52.2400   331      225.0000       45.0000  1523138   80.00%
    594   531       52.2400   380      225.0000       45.0000  1524375   80.00%
    595   532       52.2400   387      225.0000       45.0000  1524800   80.00%
Elapsed time = 2930.54 sec. (4712749.40 ticks, tree = 78.94 MB, solutions = 2)
    596   533       52.2400   411      225.0000       45.0000  1551599   80.00%
    597   534       52.2400   505      225.0000       45.0000  1553166   80.00%
    598   535       52.2400   334      225.0000       45.0000  1586641   80.00%
    601   538       52.2400   340      225.0000       45.0000  1588010   80.00%
    603   540       52.2400   340      225.0000       45.0000  1590109   80.00%
    605   542       52.2400   335      225.0000       45.0000  1591710   80.00%
    608   545       52.2400   341      225.0000       45.0000  1593078   80.00%
    609   546       52.2400   349      225.0000       45.0000  1614145   80.00%
    610   547       52.2400   347      225.0000       45.0000  1640732   80.00%
    611   548       52.2400   324      225.0000       45.0000  1666506   80.00%
Elapsed time = 3149.05 sec. (5067257.01 ticks, tree = 81.28 MB, solutions = 2)
    613   550       52.2400   336      225.0000       45.0000  1668421   80.00%
    614   551       52.2400   339      225.0000       45.0000  1710641   80.00%

Clique cuts applied:  8
Cover cuts applied:  3
Implied bound cuts applied:  1
Mixed integer rounding cuts applied:  44
Zero-half cuts applied:  74
Gomory fractional cuts applied:  9

Root node processing (before b&c):
  Real time             =  411.59 sec. (682842.84 ticks)
Sequential b&c:
  Real time             = 3192.28 sec. (5098070.86 ticks)
                          ------------
Total (root+branch&cut) = 3603.87 sec. (5780913.70 ticks)

Solution pool: 2 solutions saved.

MIP - Time limit exceeded, integer feasible:  Objective =  2.2500000000e+02
Current MIP best bound =  4.5000000000e+01 (gap = 180, 80.00%)
Solution time = 3603.87 sec.  Iterations = 1789015  Nodes = 620 (557)
Deterministic time = 5780914.13 ticks  (1604.09 ticks/sec)

CPLEX> Incumbent solution
Variable Name           Solution Value
y                           225.000000
x64                           1.000000
x5838                         1.000000
x11570                        1.000000
x17370                        1.000000
x23107                        1.000000
x28920                        1.000000
x34673                        1.000000
x40465                        1.000000
x46258                        1.000000
x52039                        1.000000
x57823                        1.000000
x63562                        1.000000
x69334                        1.000000
x75098                        1.000000
x80871                        1.000000
x86665                        1.000000
x92460                        1.000000
x98231                        1.000000
x104041                       1.000000
x109819                       1.000000
x115567                       1.000000
x121333                       1.000000
x127104                       1.000000
x132900                       1.000000
x138638                       1.000000
x144423                       1.000000
x4561                         1.000000
x10261                        1.000000
x12845                        1.000000
x20445                        1.000000
x26145                        1.000000
x30021                        1.000000
x35873                        1.000000
x41801                        1.000000
x49021                        1.000000
x56089                        1.000000
x59965                        1.000000
x64373                        1.000000
x70909                        1.000000
x77369                        1.000000
x84057                        1.000000
x87249                        1.000000
x95685                        1.000000
x101081                       1.000000
x104501                       1.000000
x113165                       1.000000
x120613                       1.000000
x123957                       1.000000
x129429                       1.000000
x134825                       1.000000
x139537                       1.000000
x148733                       1.000000
x11022                        1.000000
x118868                       1.000000
x117653                       1.000000
x88470                        1.000000
x106028                       1.000000
x91513                        1.000000
x91059                        1.000000
x65448                        1.000000
x142665                       1.000000
x115839                       1.000000
x31860                        1.000000
x42883                        1.000000
x109460                       1.000000
x83469                        1.000000
x107640                       1.000000
x136751                       1.000000
x105744                       1.000000
x121097                       1.000000
x62502                        1.000000
x75803                        1.000000
x120570                       1.000000
x81355                        1.000000
x124068                       1.000000
x49970                        1.000000
x23297                        1.000000
x85087                        1.000000
x119821                       1.000000
x115110                       1.000000
x118076                       1.000000
x105461                       1.000000
x119067                       1.000000
x139665                       1.000000
x142630                       1.000000
x82440                        1.000000
x116641                       1.000000
x146130                       1.000000
x91639                        1.000000
x5912                         1.000000
x4849                         1.000000
x87465                        1.000000
x87086                        1.000000
x121287                       1.000000
x115816                       1.000000
x10481                        1.000000
x11014                        1.000000
x115211                       1.000000
x115440                       1.000000
x119166                       1.000000
x119396                       1.000000
u2                            3.000000
u4                           48.000000
u5                           12.000000
u6                            1.000000
u8                           49.000000
u9                           49.000000
u10                          48.000000
u11                           4.000000
u12                           1.000000
u13                           4.000000
u15                          13.000000
u16                          49.000000
u17                          49.000000
u19                           2.000000
u20                          45.000000
u21                           2.000000
u22                          49.000000
u24                          47.000000
u27                           1.000000
u28                          48.000000
u29                          11.000000
u30                          10.000000
u31                          49.000000
u32                          49.000000
u34                           5.000000
u35                           1.000000
u36                           1.000000
u38                          49.000000
u41                          49.000000
u43                           4.000000
u44                          47.000000
u45                          47.000000
u46                           3.000000
u47                           1.000000
u48                           6.000000
u49                          46.000000
u51                           2.000000
u53                           1.000000
u54                           3.000000
u56                           3.000000
u57                          14.000000
u58                          49.000000
u59                           3.000000
u60                           4.000000
u61                           1.000000
u65                          48.000000
u66                           2.000000
u67                           4.000000
u68                          49.000000
u69                           1.000000
u70                           2.000000
u71                           2.000000
u72                           1.000000
u74                           7.000000
u76                           3.000000
All other variables in the range 1-148276 are 0.
CPLEX> 